branch-and-cut/resultados/I080/i080-142.sol
1708
9
65 5
4 42
2 42
42 6
1 65
65 7
65 42
65 3
42 8
